NAME : netgen22-5_31
COMMENT : Generated using the function generateClusteredNetwork from the R-package netgen (Bossek,2015) - Number of clusters: 5
TYPE : TSP
DIMENSION : 22
EDGE_WEIGHT_TYPE : EUC_2D
NODE_COORD_SECTION
1 10.3328282698 81.2079015013
2 2.460040732 72.0803504069
3 11.3667001462 79.316539397
4 7.4214054521 63.0503299138
5 26.6166138807 21.4174401235
6 32.0101227343 26.0506145802
7 33.8843227256 21.812442311
8 41.698682492 24.0755418031
9 98.0484030474 34.6431482513
10 83.5918972903 37.3350604403
11 85.5044969624 46.5912643015
12 92.8021888471 38.2383240764
13 89.4329438051 38.5206231192
14 94.1536714102 35.946322212
15 59.3169755725 13.4007306935
16 61.6304072609 5.0482759593
17 67.6671368932 5.9325725235
18 71.1662597986 6.3463799158
19 47.9112277383 96.4843902494
20 48.3144425433 94.0902124254
21 50.3024372846 92.9872784743
22 28.2464729452 97.9983051536
EOF
